(set-info :smt-lib-version 2.6)
(set-logic QF_UFLRA)
(set-info :source |
MathSat group

|)
(set-info :category "random")
(set-info :status unsat)
(declare-fun f0_1 (Real) Real)
(declare-fun f0_2 (Real Real) Real)
(declare-fun f0_3 (Real Real Real) Real)
(declare-fun f0_4 (Real Real Real Real) Real)
(declare-fun f1_1 (Real) Real)
(declare-fun f1_2 (Real Real) Real)
(declare-fun f1_3 (Real Real Real) Real)
(declare-fun f1_4 (Real Real Real Real) Real)
(declare-fun x0 () Real)
(declare-fun x1 () Real)
(declare-fun x2 () Real)
(declare-fun x3 () Real)
(declare-fun x4 () Real)
(declare-fun x5 () Real)
(declare-fun x6 () Real)
(declare-fun x7 () Real)
(declare-fun x8 () Real)
(declare-fun x9 () Real)
(declare-fun x10 () Real)
(declare-fun x11 () Real)
(declare-fun x12 () Real)
(declare-fun x13 () Real)
(declare-fun x14 () Real)
(declare-fun x15 () Real)
(declare-fun x16 () Real)
(declare-fun x17 () Real)
(declare-fun x18 () Real)
(declare-fun x19 () Real)
(declare-fun P0 () Bool)
(declare-fun P1 () Bool)
(declare-fun P2 () Bool)
(declare-fun P3 () Bool)
(declare-fun P4 () Bool)
(declare-fun P5 () Bool)
(declare-fun P6 () Bool)
(declare-fun P7 () Bool)
(declare-fun P8 () Bool)
(declare-fun P9 () Bool)
(declare-fun P10 () Bool)
(declare-fun P11 () Bool)
(declare-fun P12 () Bool)
(declare-fun P13 () Bool)
(declare-fun P14 () Bool)
(declare-fun P15 () Bool)
(declare-fun P16 () Bool)
(declare-fun P17 () Bool)
(declare-fun P18 () Bool)
(declare-fun P19 () Bool)
(assert (let ((?v_119 (f0_1 x12)) (?v_41 (f1_2 x13 x13)) (?v_4 (f1_2 x0 x15)) (?v_24 (f0_2 x15 x19)) (?v_25 (f0_2 x11 x11)) (?v_2 (f0_1 x14)) (?v_93 (f0_1 x11)) (?v_19 (f1_2 x6 x0)) (?v_165 (f1_2 x1 x15)) (?v_106 (f1_1 x12))) (let ((?v_116 (f1_2 ?v_24 ?v_25)) (?v_29 (f1_1 x10)) (?v_70 (f0_2 x0 x15)) (?v_164 (* 20 x19)) (?v_3 (f0_1 x18))) (let ((?v_76 (- (+ (* 29 (f1_1 x8)) (* 15 ?v_29)) (* 17 x15))) (?v_11 (f0_2 x16 x10)) (?v_40 (f0_2 x4 x16)) (?v_52 (f0_1 x16)) (?v_92 (f0_1 x8)) (?v_47 (f1_1 ?v_116)) (?v_204 (f1_2 x5 x10)) (?v_54 (f0_1 x9)) (?v_53 (f0_1 x15)) (?v_50 (f1_1 x13)) (?v_101 (f1_2 x12 ?v_41)) (?v_6 (f1_1 ?v_2)) (?v_5 (- (- (* 17 x14) (* 19 x9)) (* 6 x1))) (?v_30 (f0_1 x1)) (?v_87 (f0_2 x5 x4))) (let ((?v_253 (< ?v_11 14)) (?v_235 (< ?v_106 21)) (?v_105 (< ?v_87 9)) (?v_137 (< x14 19)) (?v_170 (< x2 15)) (?v_183 (= ?v_47 (f0_2 x19 x4))) (?v_102 (< ?v_204 3)) (?v_81 (= x3 (f1_2 x4 x3))) (?v_28 (= ?v_70 ?v_24)) (?v_160 (= x13 (+ (- (* 13 x13) (* 27 x3)) (* 4 x15)))) (?v_225 (< ?v_50 10)) (?v_156 (< ?v_3 0)) (?v_68 (< ?v_40 21)) (?v_181 (< (f0_2 x10 x7) 10)) (?v_58 (< ?v_106 28)) (?v_152 (= ?v_30 (f1_2 x10 x15))) (?v_33 (< ?v_30 1)) (?v_9 (< x3 12)) (?v_65 (< ?v_40 0)) (?v_56 (< x16 5)) (?v_167 (= (f1_2 x19 x1) ?v_50)) (?v_95 (< ?v_11 6)) (?v_185 (< ?v_101 16)) (?v_144 (< (f0_2 x4 ?v_19) 7)) (?v_130 (= ?v_70 (f1_2 x17 x5))) (?v_73 (< x0 23)) (?v_205 (< (f1_2 x6 x7) 22)) (?v_244 (< ?v_204 18)) (?v_14 (= ?v_41 ?v_6)) (?v_23 (< ?v_5 19)) (?v_180 (= ?v_116 x6)) (?v_147 (< ?v_6 10)) (?v_132 (< ?v_93 29)) (?v_211 (= x13 ?v_54)) (?v_80 (< ?v_5 3)) (?v_31 (< ?v_53 24)) (?v_46 (< x6 19)) (?v_36 (< ?v_19 1)) (?v_60 (< (- (+ (* 16 ?v_2) (* 4 (f1_1 x11))) (* 13 ?v_4)) 6)) (?v_63 (< ?v_92 0)) (?v_155 (= ?v_92 ?v_93)) (?v_173 (< x17 29)) (?v_13 (< x1 3)) (?v_154 (< ?v_119 0)) (?v_66 (< ?v_30 20))) (let ((?v_257 (not ?v_9)) (?v_7 (not ?v_147)) (?v_166 (not ?v_13)) (?v_38 (not ?v_60)) (?v_89 (not ?v_95)) (?v_114 (not P8)) (?v_27 (not ?v_46)) (?v_125 (not ?v_14)) (?v_123 (not P4)) (?v_59 (not P0)) (?v_85 (not P17)) (?v_75 (not ?v_181)) (?v_69 (not ?v_23)) (?v_88 (not P16)) (?v_124 (not ?v_31)) (?v_250 (not ?v_33)) (?v_84 (not ?v_58)) (?v_182 (not ?v_36)) (?v_78 (not ?v_211)) (?v_96 (not ?v_65)) (?v_104 (not ?v_63)) (?v_108 (not P5)) (?v_79 (not ?v_66)) (?v_146 (not ?v_68))) (let ((?v_245 (or ?v_69 ?v_66)) (?v_140 (not P1)) (?v_221 (not ?v_130)) (?v_103 (not ?v_80)) (?v_240 (not ?v_81)) (?v_110 (not ?v_102)) (?v_217 (not ?v_183)) (?v_175 (not ?v_144)) (?v_220 (not P18)) (?v_136 (not ?v_56)) (?v_121 (not ?v_185)) (?v_148 (not ?v_73)) (?v_145 (not ?v_105)) (?v_190 (not ?v_180)) (?v_168 (not P6)) (?v_141 (not ?v_154)) (?v_129 (not P7)) (?v_196 (not ?v_137)) (?v_184 (not ?v_132)) (?v_213 (not P15)) (?v_215 (not ?v_152)) (?v_230 (not P13)) (?v_246 (not ?v_160)) (?v_207 (not P9)) (?v_194 (not ?v_170)) (?v_179 (not ?v_28)) (?v_219 (not P14)) (?v_216 (not P19)) (?v_231 (not ?v_235)) (?v_206 (not P2)) (?v_187 (not P12)) (?v_242 (not ?v_244)) (?v_224 (not P3)) (?v_226 (not ?v_155)) (?v_260 (not P11)) (?v_236 (not ?v_173)) (?v_222 (not ?v_205)) (?v_233 (not P10)) (?v_239 (not ?v_225)) (?v_228 (not ?v_156)) (?v_252 (not ?v_167)) (?v_254 (not ?v_253)) (?v_67 (+ (* 25 ?v_29) (* 20 x3) (* 23 ?v_2))) (?v_77 (+ (* 8 x4) (* 3 x1) (* 29 x12)))) (let ((?v_218 (= ?v_54 ?v_77))) (let ((?v_243 (not ?v_218)) (?v_100 (< ?v_67 20))) (let ((?v_113 (not ?v_100)) (?v_150 (= ?v_76 ?v_77))) (let ((?v_232 (not ?v_150)) (?v_142 (= (+ (* (- 13) ?v_4) (* 22 (f0_2 x11 x14)) (* 9 x7)) ?v_67))) (let ((?v_153 (not ?v_142)) (?v_8 (< ?v_3 (- 15))) (?v_20 (< ?v_119 (- 4))) (?v_1 (+ (* (- 4) x14) (* 6 x15) (* 2 x3)))) (let ((?v_16 (f1_2 ?v_1 (- (- (* (- 22) x6) (* 6 x18)) (* 14 x12))))) (let ((?v_0 (< ?v_16 13)) (?v_35 (< ?v_40 (- 17))) (?v_131 (< (f1_2 x15 x12) (- 25)))) (let ((?v_39 (not ?v_131)) (?v_138 (not ?v_0)) (?v_10 (< ?v_1 14)) (?v_48 (< x3 (- 12)))) (let ((?v_128 (not ?v_48)) (?v_45 (< (f1_1 x1) (- 16)))) (let ((?v_51 (not ?v_45)) (?v_17 (+ (* (- 10) x15) (* 23 x3) (* 4 x8)))) (let ((?v_12 (+ (- (* 29 x13) (* 29 ?v_17)) ?v_164))) (let ((?v_32 (< (- (+ (* (- 2) ?v_25) (* 4 ?v_12)) (* 15 x0)) 23))) (let ((?v_42 (not ?v_32)) (?v_186 (< ?v_3 (- 4)))) (let ((?v_133 (not ?v_186)) (?v_212 (< ?v_5 (- 12)))) (let ((?v_195 (not ?v_212)) (?v_251 (< ?v_52 (- 2)))) (let ((?v_189 (not ?v_251)) (?v_15 (f1_2 (- (- (* (- 6) x10) (* 5 x9)) (* 9 x3)) x12))) (let ((?v_22 (< ?v_15 (- 2)))) (let ((?v_203 (not ?v_22)) (?v_109 (not ?v_8)) (?v_18 (not ?v_10)) (?v_55 (+ (* (- 19) x4) (* 7 x12) (* 9 x18)))) (let ((?v_26 (= ?v_55 ?v_54))) (let ((?v_91 (not ?v_26)) (?v_64 (= ?v_11 ?v_12)) (?v_34 (< ?v_19 (- 23)))) (let ((?v_21 (not ?v_34)) (?v_158 (= ?v_15 ?v_16)) (?v_71 (< x10 (- 16))) (?v_241 (= x7 ?v_17))) (let ((?v_210 (not ?v_241)) (?v_171 (not ?v_20)) (?v_90 (< ?v_47 (- 13)))) (let ((?v_202 (not ?v_90)) (?v_43 (< ?v_25 (- 26)))) (let ((?v_135 (not ?v_43)) (?v_49 (< x12 (- 9)))) (let ((?v_57 (not ?v_49)) (?v_37 (< ?v_76 (- 15))) (?v_107 (< x8 (- 23))) (?v_122 (not ?v_35)) (?v_94 (< ?v_165 (- 14))) (?v_62 (< (f1_2 x15 x9) (- 7))) (?v_97 (< ?v_101 (- 11))) (?v_191 (< x18 (- 29)))) (let ((?v_159 (not ?v_191)) (?v_72 (- (- (* (- 1) x16) (* 18 x10)) (* 14 x17)))) (let ((?v_178 (< ?v_72 (- 1))) (?v_44 (f1_2 ?v_1 ?v_5))) (let ((?v_82 (< ?v_44 (- 17))) (?v_74 (< ?v_44 7)) (?v_161 (< ?v_47 (- 17)))) (let ((?v_61 (not ?v_161)) (?v_198 (< ?v_30 (- 2))) (?v_176 (= ?v_52 (f0_2 ?v_53 ?v_16)))) (let ((?v_120 (not ?v_176)) (?v_127 (+ (- (* (- 19) x5) (* 15 x19)) (* 12 x8)))) (let ((?v_98 (< ?v_127 24)) (?v_162 (= ?v_50 ?v_55)) (?v_143 (not ?v_62)) (?v_139 (not ?v_64)) (?v_83 (< ?v_12 (- 15)))) (let ((?v_193 (not ?v_83)) (?v_197 (< ?v_55 2))) (let ((?v_117 (not ?v_197)) (?v_151 (< (f0_2 x1 x0) (- 11)))) (let ((?v_169 (not ?v_151)) (?v_86 (< ?v_72 9)) (?v_259 (or ?v_74 ?v_75)) (?v_255 (not ?v_82))) (let ((?v_261 (not ?v_86)) (?v_111 (< ?v_3 (- 13))) (?v_188 (= ?v_17 ?v_87))) (let ((?v_112 (not ?v_188)) (?v_115 (< ?v_2 (- 7)))) (let ((?v_174 (not ?v_115)) (?v_237 (not ?v_74)) (?v_149 (not ?v_94)) (?v_99 (not ?v_98)) (?v_134 (< ?v_19 (- 28)))) (let ((?v_209 (not ?v_134)) (?v_118 (< ?v_106 (- 25))) (?v_126 (< ?v_2 (- 26)))) (let ((?v_157 (not ?v_126)) (?v_201 (< ?v_127 (- 16)))) (let ((?v_208 (not ?v_201)) (?v_172 (< ?v_11 (- 23)))) (let ((?v_248 (not ?v_172)) (?v_163 (not ?v_97)) (?v_214 (not ?v_162)) (?v_177 (< (+ ?v_164 (* 4 ?v_165) (* 22 ?v_41)) (- 19)))) (let ((?v_258 (not ?v_177)) (?v_192 (not ?v_158)) (?v_238 (not ?v_178)) (?v_199 (< ?v_30 (- 29))) (?v_247 (not ?v_118)) (?v_234 (< (f0_1 x17) (- 13)))) (let ((?v_200 (not ?v_234)) (?v_229 (not ?v_198)) (?v_223 (not ?v_199)) (?v_227 (not ?v_111)) (?v_249 (not ?v_107)) (?v_256 (not ?v_37)) (?v_262 (not ?v_71))) (and (and (and (and (and (and (and (and (and (and (and (and (and (and (and (and (and (and (and (and (and (and (and (and (and (and (and (and (and (and (and (and (and (and (and (and (and (and (and (and (and (and (and (and (and (and (and (and (and (and (and (and (and (and (and (and (and (and (and (and (and (and (and (and (and (and (and (and (and (and (and (and (and (and (and (and (and (and (and (and (and (and (and (and (and (and (and (and (and (and (and (and (and (and (and (and (and (and (and (and (and (and (and (and (and (and (and (and (and (and (and (and (and (and (and (and (and (and (and (and (and (and (and (and (and (and (and (and (and (and (and (and (and (and (and (and (and (and (and (and (and (and (and (and (and (and (and (and (and (and (and (and (and (and (and (and (and (and (and (and (and (and (and (and (and (and (and (and (and (and (and (and (and (and (and (and (and (and (and (and (and (and (and (and (and (and (and (and (and (and (and (and (and (and (and (and (and (and (and (and (and (and (and (and (and (and (and (and (and (and (and (and (and (and (and (and (and (and (and (and (and (and (and (and (and (and (and (and (and (and (and (and (and (and (and (and (and (and (and (and (and (and (and (and (and (and (and (and (and (and (and (and (and (and (and (and (and (and (and (and (and (and (and (and (and (and (and (and (and (and (and (and (and (and (and (and (and (and (and (and (and (and (and (and (and (and (and (and (and (and (and (and (and (and (and (and (and (and (and (and (and (and (and (and (and (and (and (and (and (and (and (and (and (and (and (and (and (and (and (and (and (and (and (and (and (and (and (and (and (and (and (and (and (and (and (and (and (and (and (and (and (and (and (and (and (and (and (and (and (and (and (and (and (and (and (and (and (and (and (and (and (and (and (and (and (and (and (and (and (and (and (and (and (and (and (and (and (and (and (and (and (and (and (and (and (and (and (and (and (and (and (and (and (and (and (and (and (and (and (and (and (and (and (and (and (and (and (and (and (and (and (and (and (and (and (and (and (and (and (and (and (and (and (and (and (and (and (and (and (and (and (and (and (and (and (and (and (and (and (and (and (and (and (and (and (and (and (and (and (and (and (and (and (and (and (and (and (and (and (and (and (and (and (and (and (and (and (and (and (and (and (and (and (and (and (and (and (and (and (and (and (and (and (and (and (and (and (and (and (and (and (and (and (and (and (and (and (and (and (and (and (and (and (and (and (and (and (and (and (and (and (and (and (and (and (and (and (and (and (and (and (and (and (and (and (and (and (and (and (and (and (and (and (and (and (and (and (and (and (and (and (and (and (and (and (and (and (and (and (and (and (and (and (and (and (and (and (and (and (and (and (and (and (and (and (and (and (and (and (and (and (and (and (and (and (and (and (and (and (and (and (and (and (and (and (and (and (and (and (and (and (and (and (and (and (and (and (and (and (or (or ?v_31 ?v_153) ?v_8) (or (or P9 ?v_20) ?v_0)) (or (or ?v_35 ?v_39) ?v_138)) (or (or ?v_257 ?v_10) ?v_7)) (or (or ?v_166 ?v_128) ?v_51)) (or (or ?v_42 ?v_133) ?v_170)) (or (or ?v_195 ?v_38) ?v_63)) (or (or ?v_23 ?v_14) ?v_89)) (or (or ?v_7 ?v_189) ?v_203)) (or (or ?v_109 ?v_33) ?v_114)) (or (or ?v_9 ?v_27) ?v_18)) (or (or ?v_91 ?v_64) ?v_13)) (or (or ?v_21 ?v_125) ?v_158)) (or (or ?v_123 ?v_28) ?v_71)) (or (or ?v_105 ?v_132) ?v_210)) (or (or ?v_59 ?v_18) ?v_36)) (or (or ?v_171 ?v_21) ?v_73)) (or (or ?v_85 ?v_75) ?v_22)) (or (or ?v_20 ?v_69) P2)) (or (or ?v_202 ?v_8) ?v_26)) (or (or ?v_135 P5) ?v_57)) (or (or ?v_27 ?v_88) ?v_28)) (or (or ?v_37 ?v_66) ?v_124)) (or (or ?v_107 ?v_32) ?v_56)) (or (or ?v_250 P16) ?v_34)) (or (or ?v_167 ?v_122) ?v_84)) (or (or ?v_182 ?v_37) ?v_38)) (or (or ?v_94 ?v_37) ?v_62)) (or (or ?v_39 ?v_68) ?v_97)) (or (or ?v_159 ?v_178) ?v_42)) (or (or ?v_82 ?v_43) ?v_74)) (or (or ?v_45 ?v_10) ?v_46)) (or (or P5 ?v_61) ?v_48)) (or (or ?v_49 P2) ?v_225)) (or (or ?v_198 ?v_51) P4)) (or (or ?v_26 ?v_120) ?v_98)) (or (or ?v_78 ?v_243) ?v_81)) (or (or ?v_96 ?v_162) ?v_56)) (or (or ?v_57 ?v_58) ?v_59)) (or (or ?v_60 ?v_61) ?v_143)) (or (or ?v_104 ?v_108) ?v_137)) (or (or ?v_139 ?v_193) ?v_62)) (or (or ?v_42 ?v_65) ?v_79)) (or (or ?v_113 ?v_146) ?v_56)) (or ?v_245 ?v_140)) (or (or ?v_221 ?v_117) ?v_71)) (or (or ?v_169 ?v_13) ?v_160)) (or (or ?v_32 ?v_86) ?v_73)) (or ?v_259 ?v_156)) (or (or ?v_150 ?v_78) P18)) (or (or P10 ?v_45) ?v_80)) (or (or ?v_79 ?v_103) ?v_78)) (or (or ?v_8 ?v_10) P14)) (or (or ?v_240 ?v_255) ?v_83)) (or (or ?v_84 P11) ?v_85)) (or (or ?v_110 ?v_261) ?v_7)) (or (or ?v_111 ?v_112) ?v_88)) (or (or ?v_89 ?v_174) ?v_173)) (or (or ?v_60 P16) ?v_237)) (or (or ?v_217 ?v_79) ?v_152)) (or (or ?v_20 ?v_90) ?v_91)) (or (or P6 ?v_155) ?v_149)) (or (or ?v_95 ?v_96) ?v_26)) (or (or ?v_97 ?v_60) P13)) (or (or ?v_60 ?v_175) ?v_89)) (or (or ?v_220 ?v_136) ?v_99)) (or (or ?v_91 ?v_99) ?v_100)) (or (or ?v_62 ?v_62) ?v_121)) (or (or ?v_209 ?v_148) ?v_102)) (or (or ?v_103 ?v_104) ?v_46)) (or (or ?v_100 ?v_145) P0)) (or (or ?v_118 ?v_107) ?v_108)) (or (or ?v_109 P1) ?v_32)) (or (or ?v_20 ?v_110) ?v_107)) (or (or ?v_46 ?v_94) ?v_126)) (or (or ?v_111 P2) ?v_112)) (or (or P11 ?v_113) ?v_253)) (or (or ?v_110 ?v_66) P11)) (or (or ?v_114 ?v_115) ?v_98)) (or (or ?v_18 ?v_190) ?v_168)) (or (or ?v_99 ?v_32) ?v_117)) (or (or ?v_75 ?v_9) ?v_80)) (or (or ?v_118 ?v_141) ?v_73)) (or (or ?v_120 ?v_121) ?v_118)) (or (or ?v_61 P3) P19)) (or (or ?v_122 ?v_39) ?v_123)) (or (or ?v_129 ?v_124) ?v_122)) (or (or ?v_125 ?v_157) ?v_208)) (or (or ?v_128 ?v_129) ?v_130)) (or (or ?v_122 ?v_95) ?v_131)) (or (or ?v_97 ?v_132) P11)) (or (or ?v_133 ?v_78) ?v_113)) (or (or ?v_134 ?v_135) ?v_91)) (or (or ?v_136 ?v_84) ?v_196)) (or (or ?v_138 ?v_28) ?v_113)) (or (or ?v_139 ?v_45) P8)) (or (or ?v_111 ?v_38) ?v_184)) (or (or ?v_83 ?v_37) ?v_140)) (or (or ?v_13 ?v_133) ?v_141)) (or (or ?v_14 ?v_142) ?v_143)) (or (or ?v_120 ?v_81) ?v_49)) (or (or ?v_22 ?v_248) ?v_144)) (or (or ?v_139 ?v_145) ?v_163)) (or (or ?v_146 ?v_147) ?v_118)) (or (or ?v_102 ?v_148) ?v_149)) (or (or ?v_144 ?v_150) ?v_151)) (or (or P7 ?v_213) ?v_58)) (or (or ?v_8 ?v_215) ?v_13)) (or (or ?v_86 ?v_153) P18)) (or (or ?v_154 ?v_128) ?v_7)) (or (or ?v_155 ?v_156) ?v_132)) (or (or ?v_124 ?v_205) ?v_80)) (or (or ?v_230 ?v_97) P7)) (or (or ?v_157 ?v_65) ?v_26)) (or (or ?v_69 ?v_8) P10)) (or (or ?v_158 ?v_20) ?v_159)) (or (or ?v_23 ?v_246) ?v_0)) (or (or ?v_161 ?v_26) ?v_207)) (or (or ?v_46 ?v_129) ?v_115)) (or (or ?v_56 P7) ?v_214)) (or (or ?v_163 ?v_96) ?v_177)) (or (or ?v_157 ?v_95) ?v_27)) (or (or ?v_166 ?v_21) ?v_48)) (or (or ?v_167 ?v_168) ?v_169)) (or (or ?v_157 ?v_115) ?v_48)) (or (or ?v_194 ?v_171) ?v_172)) (or (or ?v_179 ?v_31) ?v_134)) (or (or ?v_159 ?v_113) P10)) (or (or ?v_163 ?v_173) P4)) (or (or ?v_174 ?v_219) P15)) (or (or ?v_175 ?v_82) ?v_109)) (or (or ?v_46 ?v_216) P1)) (or (or ?v_176 ?v_96) ?v_33)) (or (or ?v_152 ?v_35) ?v_81)) (or (or ?v_171 ?v_258) ?v_192)) (or (or ?v_238 P2) ?v_97)) (or (or ?v_178 ?v_158) ?v_18)) (or (or ?v_123 ?v_73) ?v_179)) (or (or P11 ?v_102) ?v_134)) (or (or ?v_167 ?v_136) ?v_49)) (or (or P6 ?v_114) ?v_94)) (or (or ?v_123 ?v_180) P10)) (or (or ?v_181 ?v_231) ?v_199)) (or (or ?v_182 ?v_206) ?v_22)) (or (or ?v_108 ?v_95) ?v_104)) (or (or ?v_163 ?v_247) ?v_42)) (or (or ?v_141 ?v_183) ?v_79)) (or (or ?v_145 ?v_187) ?v_56)) (or (or ?v_170 ?v_91) ?v_20)) (or (or ?v_184 ?v_185) ?v_46)) (or (or ?v_186 ?v_115) ?v_69)) (or (or P10 ?v_20) ?v_149)) (or (or ?v_187 ?v_42) ?v_21)) (or (or ?v_73 ?v_97) ?v_188)) (or (or ?v_108 ?v_200) ?v_184)) (or (or ?v_189 ?v_57) ?v_100)) (or (or ?v_79 ?v_9) ?v_190)) (or (or ?v_35 ?v_191) ?v_62)) (or (or ?v_174 ?v_36) ?v_51)) (or (or ?v_14 ?v_192) ?v_232)) (or (or ?v_94 ?v_8) ?v_193)) (or (or ?v_83 ?v_49) ?v_166)) (or (or ?v_60 ?v_74) ?v_194)) (or (or ?v_183 ?v_38) P5)) (or (or ?v_195 P1) ?v_168)) (or (or ?v_69 P17) ?v_71)) (or (or ?v_185 ?v_27) ?v_188)) (or (or P4 ?v_31) ?v_184)) (or (or ?v_74 ?v_196) ?v_197)) (or (or ?v_178 ?v_118) P7)) (or (or P1 ?v_229) ?v_146)) (or (or ?v_169 ?v_9) ?v_199)) (or (or P1 ?v_223) ?v_68)) (or (or ?v_28 ?v_177) ?v_200)) (or (or ?v_201 ?v_141) ?v_202)) (or (or ?v_200 ?v_162) ?v_203)) (or (or ?v_242 ?v_99) ?v_39)) (or (or ?v_224 ?v_139) ?v_104)) (or (or ?v_205 ?v_206) ?v_207)) (or (or ?v_8 ?v_81) ?v_226)) (or (or ?v_105 P18) ?v_189)) (or (or ?v_177 P19) ?v_85)) (or (or ?v_208 ?v_108) ?v_209)) (or (or ?v_260 ?v_159) ?v_128)) (or (or ?v_0 ?v_210) ?v_61)) (or (or ?v_81 ?v_68) ?v_23)) (or (or ?v_211 ?v_154) ?v_120)) (or (or ?v_209 ?v_156) ?v_236)) (or (or ?v_89 P8) P16)) (or (or ?v_212 ?v_120) ?v_190)) (or (or ?v_213 ?v_51) ?v_137)) (or (or ?v_208 ?v_181) ?v_104)) (or (or ?v_162 ?v_28) ?v_75)) (or (or ?v_126 P10) ?v_214)) (or (or ?v_68 ?v_42) ?v_215)) (or (or ?v_108 ?v_195) ?v_222)) (or (or ?v_23 ?v_196) ?v_194)) (or (or P0 ?v_85) ?v_60)) (or (or ?v_80 ?v_65) ?v_61)) (or (or ?v_190 ?v_216) ?v_46)) (or (or ?v_148 ?v_58) P4)) (or (or ?v_110 ?v_217) ?v_171)) (or (or ?v_151 ?v_174) ?v_159)) (or (or ?v_205 ?v_32) ?v_78)) (or (or ?v_218 ?v_217) ?v_134)) (or (or ?v_59 ?v_102) ?v_227)) (or (or ?v_62 ?v_71) ?v_103)) (or (or ?v_104 ?v_219) P17)) (or (or ?v_149 ?v_26) ?v_14)) (or (or ?v_27 ?v_144) ?v_118)) (or (or ?v_113 ?v_143) ?v_233)) (or (or ?v_74 ?v_178) ?v_175)) (or (or ?v_117 ?v_27) ?v_209)) (or (or ?v_151 ?v_220) ?v_213)) (or (or ?v_128 ?v_221) ?v_218)) (or (or ?v_136 ?v_61) ?v_63)) (or (or ?v_219 ?v_94) ?v_180)) (or (or ?v_109 ?v_118) ?v_222)) (or (or ?v_122 ?v_213) ?v_223)) (or (or ?v_224 ?v_143) ?v_173)) (or (or ?v_239 ?v_226) ?v_195)) (or (or ?v_228 ?v_143) ?v_111)) (or (or ?v_59 ?v_198) ?v_227)) (or (or ?v_206 ?v_209) ?v_175)) (or (or P13 ?v_249) ?v_32)) (or (or ?v_0 ?v_228) ?v_141)) (or (or ?v_74 P7) ?v_197)) (or (or ?v_86 ?v_229) ?v_148)) (or (or ?v_230 ?v_36) ?v_120)) (or (or ?v_33 ?v_231) ?v_232)) (or (or ?v_129 ?v_156) ?v_137)) (or (or ?v_188 ?v_199) ?v_233)) (or (or P16 P6) ?v_137)) (or (or ?v_118 P16) ?v_156)) (or (or P15 ?v_230) ?v_226)) (or (or ?v_99 ?v_117) ?v_178)) (or (or ?v_84 ?v_8) ?v_79)) (or (or ?v_206 ?v_213) ?v_177)) (or (or ?v_82 P19) ?v_234)) (or (or ?v_161 ?v_192) ?v_152)) (or (or ?v_79 ?v_235) ?v_142)) (or (or ?v_10 P5) ?v_203)) (or (or ?v_188 ?v_233) ?v_158)) (or (or ?v_82 ?v_62) ?v_91)) (or (or ?v_188 ?v_105) ?v_218)) (or (or ?v_115 ?v_236) ?v_157)) (or (or P10 ?v_61) ?v_122)) (or (or ?v_43 ?v_167) ?v_186)) (or (or ?v_95 ?v_195) ?v_233)) (or (or ?v_172 ?v_224) ?v_198)) (or (or ?v_237 ?v_220) ?v_182)) (or (or ?v_238 P5) ?v_183)) (or (or ?v_36 ?v_215) ?v_142)) (or (or ?v_160 ?v_98) ?v_220)) (or (or ?v_39 ?v_170) ?v_169)) (or (or ?v_107 ?v_22) P0)) (or (or P0 ?v_43) ?v_150)) (or (or ?v_182 ?v_34) ?v_252)) (or (or ?v_148 ?v_177) ?v_144)) (or (or P11 ?v_130) ?v_144)) (or (or ?v_167 P8) ?v_152)) (or (or ?v_62 ?v_147) ?v_189)) (or (or ?v_23 ?v_112) ?v_211)) (or (or P3 ?v_32) ?v_20)) (or (or ?v_160 ?v_21) ?v_84)) (or (or ?v_180 ?v_171) ?v_239)) (or (or ?v_240 ?v_241) ?v_201)) (or (or ?v_179 P11) ?v_195)) (or (or ?v_125 ?v_146) ?v_181)) (or (or ?v_242 ?v_78) ?v_141)) (or (or ?v_226 ?v_233) ?v_168)) (or (or ?v_202 ?v_231) ?v_56)) (or (or ?v_154 ?v_173) ?v_200)) (or (or ?v_13 ?v_213) ?v_181)) (or (or ?v_179 P5) ?v_163)) (or (or ?v_143 ?v_225) ?v_43)) (or (or ?v_134 ?v_243) ?v_145)) (or (or ?v_244 ?v_33) ?v_141)) (or (or ?v_132 P11) ?v_200)) (or (or ?v_37 ?v_68) ?v_142)) (or (or ?v_65 ?v_214) ?v_130)) (or ?v_245 ?v_196)) (or (or ?v_94 ?v_130) ?v_242)) (or (or ?v_82 ?v_174) P6)) (or (or ?v_176 ?v_179) ?v_43)) (or (or P5 P9) ?v_42)) (or (or ?v_219 ?v_240) ?v_129)) (or (or ?v_177 ?v_162) ?v_246)) (or (or ?v_190 ?v_9) ?v_192)) (or (or ?v_247 ?v_105) ?v_134)) (or (or P12 ?v_37) ?v_225)) (or (or ?v_166 ?v_201) ?v_126)) (or (or P13 ?v_248) ?v_74)) (or (or ?v_96 ?v_139) ?v_175)) (or (or ?v_183 ?v_49) ?v_38)) (or (or ?v_122 ?v_99) ?v_150)) (or (or ?v_191 ?v_49) ?v_111)) (or (or ?v_161 ?v_151) ?v_71)) (or (or ?v_249 ?v_46) ?v_219)) (or (or ?v_84 ?v_65) ?v_75)) (or (or ?v_60 ?v_99) ?v_78)) (or (or ?v_26 ?v_218) ?v_145)) (or (or ?v_48 ?v_121) ?v_221)) (or (or ?v_140 ?v_224) P9)) (or (or ?v_176 ?v_0) ?v_18)) (or (or ?v_108 ?v_176) ?v_118)) (or (or ?v_178 ?v_20) ?v_9)) (or (or ?v_68 ?v_205) ?v_129)) (or (or ?v_66 ?v_107) ?v_33)) (or (or ?v_63 ?v_122) ?v_125)) (or (or ?v_58 ?v_0) ?v_48)) (or (or ?v_199 ?v_209) ?v_239)) (or (or ?v_182 ?v_209) ?v_174)) (or (or P16 ?v_197) ?v_206)) (or (or ?v_158 ?v_81) ?v_152)) (or (or ?v_150 ?v_63) ?v_228)) (or (or ?v_141 ?v_250) ?v_136)) (or (or ?v_113 ?v_234) ?v_71)) (or (or ?v_36 ?v_86) ?v_27)) (or (or ?v_68 ?v_115) ?v_14)) (or (or ?v_100 ?v_69) ?v_236)) (or (or ?v_61 ?v_108) ?v_156)) (or (or ?v_18 ?v_205) ?v_160)) (or (or ?v_120 ?v_206) ?v_235)) (or (or ?v_139 P5) ?v_147)) (or (or ?v_110 ?v_90) ?v_108)) (or (or ?v_66 ?v_172) P7)) (or (or P0 ?v_8) ?v_97)) (or (or ?v_8 ?v_188) ?v_142)) (or (or ?v_226 ?v_169) ?v_163)) (or (or ?v_21 ?v_36) ?v_207)) (or (or ?v_115 ?v_38) ?v_107)) (or (or ?v_233 ?v_82) ?v_169)) (or (or ?v_28 ?v_42) ?v_210)) (or (or ?v_251 ?v_83) ?v_124)) (or (or ?v_35 P2) ?v_68)) (or (or ?v_98 ?v_244) P11)) (or (or ?v_46 ?v_187) ?v_104)) (or (or ?v_173 ?v_197) ?v_226)) (or (or ?v_158 P3) ?v_115)) (or (or ?v_61 ?v_243) ?v_153)) (or (or ?v_26 ?v_252) P12)) (or (or ?v_124 ?v_232) ?v_161)) (or (or ?v_118 ?v_240) ?v_194)) (or (or ?v_162 ?v_143) ?v_153)) (or (or ?v_90 ?v_188) ?v_79)) (or (or ?v_254 ?v_20) ?v_9)) (or (or ?v_226 ?v_247) ?v_79)) (or (or P16 ?v_10) ?v_227)) (or (or ?v_65 ?v_185) ?v_90)) (or (or ?v_166 ?v_251) ?v_181)) (or (or ?v_152 ?v_85) ?v_132)) (or (or ?v_254 ?v_225) P6)) (or (or ?v_104 ?v_26) ?v_109)) (or (or ?v_223 ?v_27) ?v_156)) (or (or P11 ?v_37) ?v_242)) (or (or ?v_166 ?v_176) ?v_244)) (or (or ?v_96 ?v_39) ?v_220)) (or (or ?v_176 ?v_60) ?v_239)) (or (or ?v_79 P16) ?v_56)) (or (or P13 ?v_43) ?v_153)) (or (or P19 ?v_96) ?v_81)) (or (or ?v_98 ?v_142) ?v_138)) (or (or ?v_227 ?v_95) ?v_32)) (or (or ?v_217 ?v_97) ?v_110)) (or (or ?v_157 ?v_255) ?v_66)) (or (or ?v_0 ?v_88) ?v_256)) (or (or ?v_210 ?v_218) P13)) (or (or ?v_153 ?v_218) ?v_179)) (or (or ?v_215 P4) ?v_95)) (or (or ?v_99 ?v_172) ?v_158)) (or (or ?v_7 ?v_115) ?v_75)) (or (or ?v_202 ?v_33) ?v_256)) (or (or ?v_208 ?v_110) ?v_246)) (or (or ?v_113 P11) ?v_166)) (or (or ?v_37 ?v_217) ?v_65)) (or (or P13 ?v_130) ?v_233)) (or (or ?v_156 ?v_137) ?v_208)) (or (or ?v_173 ?v_227) ?v_156)) (or (or ?v_23 ?v_43) P16)) (or (or ?v_257 ?v_243) ?v_74)) (or (or ?v_203 ?v_131) ?v_102)) (or (or P12 ?v_244) ?v_139)) (or (or ?v_128 ?v_186) ?v_68)) (or (or ?v_182 ?v_213) ?v_133)) (or (or ?v_42 ?v_184) ?v_244)) (or (or ?v_189 ?v_74) ?v_94)) (or (or ?v_94 ?v_48) ?v_255)) (or (or ?v_224 ?v_138) P7)) (or (or ?v_187 ?v_153) P4)) (or (or P3 ?v_89) ?v_140)) (or (or ?v_258 ?v_248) ?v_225)) (or (or ?v_85 ?v_32) ?v_207)) (or ?v_259 ?v_161)) (or (or ?v_232 ?v_133) ?v_22)) (or (or ?v_138 ?v_193) ?v_90)) (or (or ?v_149 P18) ?v_98)) (or (or ?v_141 ?v_199) P4)) (or (or ?v_226 ?v_220) ?v_102)) (or (or ?v_257 ?v_98) ?v_137)) (or (or P7 ?v_48) ?v_167)) (or (or ?v_228 ?v_137) ?v_154)) (or (or ?v_123 ?v_184) ?v_20)) (or (or P15 ?v_51) ?v_241)) (or (or ?v_191 ?v_91) ?v_128)) (or (or ?v_39 ?v_162) ?v_181)) (or (or ?v_134 ?v_46) ?v_37)) (or (or ?v_88 ?v_222) ?v_218)) (or (or ?v_48 ?v_238) ?v_240)) (or (or ?v_42 ?v_33) P8)) (or (or ?v_120 ?v_112) ?v_171)) (or (or ?v_233 ?v_210) ?v_74)) (or (or ?v_163 ?v_200) ?v_226)) (or (or ?v_156 ?v_110) ?v_73)) (or (or ?v_217 ?v_188) ?v_143)) (or (or ?v_223 ?v_190) ?v_126)) (or (or P11 ?v_100) ?v_167)) (or (or P4 ?v_159) ?v_185)) (or (or ?v_126 ?v_247) ?v_206)) (or (or ?v_141 ?v_95) ?v_182)) (or (or ?v_89 ?v_63) ?v_61)) (or (or ?v_220 ?v_260) ?v_189)) (or (or ?v_124 P10) ?v_96)) (or (or ?v_89 ?v_71) ?v_73)) (or (or ?v_125 ?v_171) ?v_217)) (or (or ?v_191 ?v_135) ?v_146)) (or (or ?v_138 ?v_225) ?v_156)) (or (or ?v_42 ?v_237) ?v_73)) (or (or ?v_108 ?v_90) ?v_253)) (or (or P18 ?v_184) ?v_84)) (or (or ?v_57 ?v_138) ?v_168)) (or (or ?v_42 ?v_115) ?v_62)) (or (or ?v_220 P16) P6)) (or (or ?v_250 ?v_182) ?v_62)) (or (or ?v_37 ?v_166) ?v_180)) (or (or ?v_63 ?v_173) ?v_80)) (or (or ?v_261 ?v_60) ?v_246)) (or (or ?v_34 ?v_75) ?v_193)) (or (or ?v_66 ?v_20) ?v_130)) (or (or ?v_117 ?v_248) ?v_151)) (or (or ?v_130 ?v_201) ?v_200)) (or (or ?v_125 P15) ?v_43)) (or (or ?v_254 ?v_255) ?v_51)) (or (or P3 ?v_111) ?v_148)) (or (or ?v_143 ?v_71) ?v_159)) (or (or P19 ?v_231) ?v_199)) (or (or ?v_46 ?v_247) ?v_129)) (or (or ?v_231 ?v_225) ?v_21)) (or (or ?v_124 ?v_140) ?v_79)) (or (or ?v_218 ?v_167) ?v_223)) (or (or ?v_137 P15) ?v_183)) (or (or ?v_23 ?v_208) ?v_136)) (or (or ?v_121 ?v_179) ?v_14)) (or (or ?v_167 ?v_69) ?v_28)) (or (or ?v_243 ?v_202) ?v_42)) (or (or P6 ?v_104) ?v_66)) (or (or ?v_152 ?v_118) ?v_14)) (or (or ?v_177 ?v_104) ?v_10)) (or (or ?v_225 ?v_109) P15)) (or (or ?v_218 ?v_236) P12)) (or (or ?v_198 ?v_95) ?v_113)) (or (or ?v_190 ?v_22) ?v_23)) (or (or ?v_82 ?v_42) ?v_243)) (or (or ?v_96 ?v_79) ?v_240)) (or (or ?v_171 ?v_51) ?v_136)) (or (or ?v_115 ?v_80) ?v_249)) (or (or ?v_182 ?v_0) ?v_261)) (or (or ?v_56 ?v_42) ?v_172)) (or (or ?v_26 P4) ?v_239)) (or (or ?v_235 ?v_220) ?v_111)) (or (or ?v_159 ?v_214) ?v_160)) (or (or ?v_179 ?v_33) ?v_107)) (or (or ?v_90 ?v_174) P10)) (or (or ?v_225 ?v_190) ?v_207)) (or (or ?v_84 ?v_219) ?v_247)) (or (or P18 ?v_209) P5)) (or (or ?v_13 ?v_146) ?v_84)) (or (or ?v_240 ?v_97) ?v_129)) (or (or ?v_80 ?v_224) ?v_197)) (or (or ?v_43 ?v_159) ?v_78)) (or (or ?v_98 ?v_251) P13)) (or (or ?v_81 ?v_206) ?v_73)) (or (or ?v_217 ?v_10) ?v_154)) (or (or ?v_242 ?v_206) ?v_38)) (or (or ?v_193 ?v_231) ?v_251)) (or (or ?v_63 ?v_99) ?v_185)) (or (or ?v_108 ?v_209) ?v_160)) (or (or ?v_226 ?v_207) ?v_144)) (or (or ?v_175 ?v_143) ?v_168)) (or (or ?v_243 ?v_206) ?v_169)) (or (or ?v_260 ?v_34) ?v_234)) (or (or ?v_246 ?v_38) ?v_46)) (or (or ?v_176 ?v_143) ?v_96)) (or (or P7 ?v_18) ?v_205)) (or (or P16 ?v_73) P2)) (or (or ?v_18 ?v_181) ?v_257)) (or (or ?v_95 ?v_166) ?v_128)) (or (or ?v_203 ?v_18) ?v_89)) (or (or ?v_123 ?v_246) ?v_253)) (or (or ?v_205 ?v_249) ?v_221)) (or (or ?v_200 ?v_91) ?v_258)) (or (or ?v_159 ?v_181) ?v_88)) (or (or ?v_97 ?v_168) ?v_102)) (or (or P13 P16) ?v_137)) (or (or P4 P11) ?v_14)) (or (or P10 ?v_114) ?v_89)) (or (or ?v_120 ?v_149) ?v_22)) (or (or P15 ?v_71) P11)) (or (or ?v_62 ?v_161) ?v_188)) (or (or ?v_59 ?v_186) P19)) (or (or P12 ?v_256) ?v_207)) (or (or ?v_221 ?v_68) ?v_226)) (or (or ?v_43 ?v_149) ?v_86)) (or (or ?v_51 ?v_199) ?v_73)) (or (or ?v_192 ?v_115) ?v_166)) (or (or ?v_203 P14) ?v_248)) (or (or ?v_109 ?v_240) ?v_184)) (or (or ?v_195 ?v_129) ?v_254)) (or (or ?v_96 ?v_247) ?v_195)) (or (or ?v_69 ?v_219) ?v_203)) (or (or ?v_260 P3) ?v_66)) (or (or ?v_194 ?v_162) P8)) (or (or ?v_39 ?v_179) ?v_158)) (or (or ?v_200 P12) ?v_114)) (or (or ?v_261 ?v_122) ?v_196)) (or (or ?v_129 ?v_147) ?v_33)) (or (or ?v_123 ?v_142) ?v_226)) (or (or ?v_143 ?v_260) ?v_210)) (or (or ?v_49 ?v_218) ?v_121)) (or (or ?v_129 ?v_49) ?v_181)) (or (or ?v_214 ?v_184) ?v_84)) (or (or ?v_209 ?v_206) ?v_229)) (or (or P1 ?v_182) ?v_104)) (or (or ?v_251 ?v_174) ?v_243)) (or (or ?v_191 ?v_238) ?v_37)) (or (or ?v_188 ?v_74) ?v_212)) (or (or ?v_107 ?v_171) P12)) (or (or ?v_146 ?v_145) ?v_94)) (or (or ?v_102 ?v_234) ?v_144)) (or (or ?v_79 ?v_110) ?v_138)) (or (or ?v_159 P11) ?v_110)) (or (or P9 ?v_239) ?v_128)) (or (or ?v_138 ?v_111) ?v_218)) (or (or ?v_252 ?v_131) P19)) (or (or ?v_213 ?v_247) ?v_141)) (or (or ?v_174 ?v_223) ?v_18)) (or (or ?v_167 ?v_48) ?v_181)) (or (or ?v_96 ?v_114) ?v_71)) (or (or ?v_20 ?v_179) ?v_250)) (or (or ?v_104 ?v_60) ?v_21)) (or (or ?v_166 ?v_112) ?v_113)) (or (or ?v_144 ?v_99) ?v_163)) (or (or ?v_222 ?v_129) ?v_175)) (or (or ?v_262 ?v_209) ?v_61)) (or (or ?v_103 ?v_171) ?v_202)) (or (or ?v_233 ?v_192) ?v_174)) (or (or P14 P12) ?v_252)) (or (or ?v_216 ?v_196) ?v_166)) (or (or ?v_95 ?v_174) ?v_145)) (or (or ?v_224 ?v_190) ?v_143)) (or (or P19 ?v_120) ?v_109)) (or (or ?v_152 ?v_81) ?v_216)) (or (or P4 ?v_109) ?v_202)) (or (or ?v_174 ?v_7) ?v_198)) (or (or ?v_202 ?v_58) ?v_51)) (or (or ?v_26 ?v_222) ?v_150)) (or (or ?v_231 ?v_78) P11)) (or (or ?v_189 ?v_173) ?v_63)) (or (or ?v_173 ?v_83) ?v_161)) (or (or ?v_215 ?v_26) ?v_186)) (or (or ?v_33 ?v_125) ?v_247)) (or (or ?v_98 ?v_114) ?v_14)) (or (or ?v_79 ?v_194) ?v_252)) (or (or ?v_242 ?v_83) P1)) (or (or ?v_132 ?v_57) ?v_152)) (or (or ?v_168 ?v_162) ?v_174)) (or (or ?v_156 ?v_26) ?v_112)) (or (or ?v_239 ?v_99) P10)) (or (or ?v_27 ?v_136) ?v_223)) (or (or ?v_262 ?v_91) ?v_49)) (or (or ?v_22 ?v_216) ?v_189)) (or (or ?v_73 P14) ?v_146)) (or (or ?v_221 ?v_185) ?v_171)) (or (or P13 ?v_115) ?v_254)) (or (or ?v_261 ?v_185) ?v_205)) (or (or P17 ?v_159) P8)) (or (or ?v_138 ?v_213) ?v_117)) (or (or ?v_91 ?v_137) ?v_74)) (or (or ?v_256 ?v_202) ?v_51)) (or (or ?v_123 ?v_256) ?v_255)) (or (or ?v_35 ?v_252) P9)) (or (or ?v_189 ?v_189) ?v_137)) (or (or ?v_201 P12) ?v_73)) (or (or ?v_260 ?v_236) ?v_203)) (or (or ?v_58 ?v_21) ?v_138)) (or (or ?v_111 ?v_62) P7)) (or (or ?v_202 ?v_32) ?v_237)) (or (or ?v_62 ?v_58) ?v_13)) (or (or ?v_32 ?v_97) ?v_158)) (or (or ?v_14 ?v_78) ?v_28))))))))))))))))))))))))))))))))))))))))))))))))))))
(check-sat)
(exit)
